NAME: PointSet_Angle_45_4
TYPE: TSP
COMMENT: Points chosen discrete uniformly at random out of ${0, \ldots, 500}^2$.
DIMENSION: 45
EDGE_WEIGHT_TYPE: EUC_2D
NODE_COORD_SECTION
1 1 284
2 169 17
3 370 244
4 84 226
5 401 278
6 389 450
7 490 314
8 289 387
9 7 139
10 36 176
11 116 359
12 462 219
13 345 142
14 447 187
15 471 361
16 6 218
17 145 422
18 235 261
19 166 319
20 488 66
21 343 122
22 15 332
23 437 50
24 466 190
25 189 1
26 366 305
27 360 73
28 271 451
29 216 464
30 137 186
31 325 391
32 150 216
33 312 386
34 477 224
35 451 210
36 290 294
37 333 52
38 372 15
39 349 337
40 205 38
41 84 317
42 89 190
43 391 106
44 141 353
45 70 24
EOF
